260087.62,17.83,19.53
258778.57,17.92,19.63
255042.26,18.18,19.92
253633.52,18.28,20.03
262805.93,17.65,19.33
254094.13,18.25,19.99
266081.69,17.43,19.09
266298.01,17.41,19.08
262272.44,17.68,19.37
263929.83,17.57,19.25
255125.2,18.18,19.91
252344.36,18.38,20.13
252996.12,18.33,20.08
250169.88,18.54,20.3
258807.27,17.92,19.63
258697.96,17.93,19.64
254972.88,18.19,19.92
267344.39,17.35,19.0
264316.35,17.55,19.22
256020.89,18.11,19.84
